branch-and-cut/resultados/I080/i080-201.sol
4760
25
77 5
77 11
4 6
13 45
11 51
34 22
71 50
62 50
7 10
71 22
77 71
16 34
7 34
77 19
9 71
51 15
2 16
12 48
51 45
3 11
4 19
8 62
16 48
1 77
16 14
